c WARNING: for repeatability, setting FPU to use double precision
d VARIABLES            141558       
d CONSTRAINTS          595356       
c ============================[ Problem Statistics ]=============================
c |                                                                             |
c |  Number of variables:        141558                                         |
c |  Number of clauses:          595356                                         |
c |  Parse time:                   0.10 s                                       |
c |                                                                             |
c ============================[ Search Statistics ]==============================
c | Conflicts |          ORIGINAL         |          LEARNT          | Progress |
c |           |    Vars  Clauses Literals |    Limit  Clauses Lit/Cl |          |
c ===============================================================================
c |       100 |  111379   517134  1257275 |   189615       99     50 | 21.319 % |
c |       250 |  111379   517134  1257275 |   208577      249     61 | 21.319 % |
c |       475 |  111379   517134  1257275 |   229435      474     66 | 21.319 % |
c |       812 |  111379   517089  1257167 |   252378      811     82 | 21.319 % |
c |      1318 |  111379   517089  1257167 |   277616     1317     93 | 21.319 % |
c |      2077 |  111379   517089  1257167 |   305378     2076     99 | 21.319 % |
c |      3216 |  111379   517089  1257167 |   335915     3215     96 | 21.319 % |
c |      4924 |  111379   517089  1257167 |   369507     4923     97 | 21.319 % |
c |      7486 |  111379   517089  1257167 |   406458     7485    108 | 21.319 % |
c |     11330 |  111379   517089  1257167 |   447104    11329    109 | 21.319 % |
c |     17096 |  111379   517089  1257167 |   491814    17095    114 | 21.319 % |
c |     25745 |  111379   517089  1257167 |   540996    25744    126 | 21.319 % |
c |     38719 |  111379   517089  1257167 |   595095    38718    124 | 21.319 % |
c |     58180 |  111379   517089  1257167 |   654605    58179    141 | 21.319 % |
c |     87372 |  111379   517089  1257167 |   720065    87371    133 | 21.319 % |
c |    131161 |  111379   517089  1257167 |   792072   131160    128 | 21.319 % |
c |    196845 |  111379   517089  1257167 |   871279   196844    128 | 21.319 % |
c |    295371 |  111379   517089  1257167 |   958407   295370    128 | 21.319 % |
c |    443160 |  111379   517089  1257167 |  1054248   443159    123 | 21.319 % |
c |    664843 |  111379   517089  1257167 |  1159672   664842    124 | 21.319 % |
c |    997368 |  111379   517089  1257167 |  1275640   997367    126 | 21.319 % |
c |   1496156 |  111379   517089  1257167 |  1403204   225343    105 | 21.319 % |
c ===============================================================================
c restarts              : 4093
c conflicts             : 2129678        (1195 /sec)
c decisions             : 5059733        (0.00 % random) (2840 /sec)
c propagations          : 3143827314     (1764558 /sec)
c conflict literals     : 271106719      (46.29 % deleted)
d RESTARTS             4093
d FAILURES             2129678      
d NODES                5059733      
d BACKTRACKS           5059733      
d PROPAGATIONS         3143827314   
d NOGOODSIZE           127.30 
d MEMORY               1044.00 
d TIME                 1781.65 

s UNKNOWN
